(declare-const term_to_project_onto0 Real)
(declare-const term_to_project_onto1 Real)
(declare-const term_to_project_onto2 Real)
(declare-const term_to_project_onto Real)
(declare-const c Int)
(assert (exists
         ((|c'?1| Int) (|y'?2| Int) (|x'?3| Int) (phi_z?4 Int) (phi_y?5 Int)
            (havoc?6 Int) (phi_x?7 Int) (havoc?8 Int) (|z'?9| Int) (d?10 Int)
            (y?11 Int) (x?12 Int) (z?13 Int))
         (and (<= (+ (- x?12) 1) 0) (<= (+ (- y?11) 1) 0)
                (or (and (or (<= (+ havoc?8 1) 0) (<= (+ (- havoc?8) 1) 0))
                           (= (+ (- phi_x?7) (- d?10) x?12) 0)
                           (= (+ (- phi_y?5) havoc?6) 0)
                           (= (+ (- phi_z?4) z?13 -1) 0))
                      (and (= havoc?8 0) (= (+ (- phi_x?7) x?12) 0)
                             (= (+ (- phi_y?5) (- d?10) y?11) 0)
                             (= (+ (- phi_z?4) z?13) 0)))
                (= (+ |c'?1| (- havoc?8)) 0) (= (+ |z'?9| (- phi_z?4)) 0)
                (= (+ |y'?2| (- phi_y?5)) 0) (= (+ |x'?3| (- phi_x?7)) 0)
                (= term_to_project_onto2 (+ |x'?3| (- x?12)))
                (= term_to_project_onto1 (+ |y'?2| (- y?11)))
                (= term_to_project_onto0 (+ |z'?9| (- z?13)))
                (= term_to_project_onto (+ |c'?1| (- c))))))
(check-sat)
